
******************************************************************************
This program contains Ipopt, a library for large-scale nonlinear optimization.
 Ipopt is released as open source code under the Eclipse Public License (EPL).
         For more information visit https://github.com/coin-or/Ipopt
******************************************************************************

This is Ipopt version 3.14.19, running with linear solver MUMPS 5.8.1.

Number of nonzeros in equality constraint Jacobian...:     4389
Number of nonzeros in inequality constraint Jacobian.:        0
Number of nonzeros in Lagrangian Hessian.............:     1050

Total number of variables............................:     1287
                     variables with only lower bounds:        0
                variables with lower and upper bounds:      457
                     variables with only upper bounds:        0
Total number of equality constraints.................:     1274
Total number of inequality constraints...............:        0
        inequality constraints with only lower bounds:        0
   inequality constraints with lower and upper bounds:        0
        inequality constraints with only upper bounds:        0

iter    objective    inf_pr   inf_du lg(mu)  ||d||  lg(rg) alpha_du alpha_pr  ls
   0  9.8482116e+00 9.90e+01 1.91e-04  -1.0 0.00e+00    -  0.00e+00 0.00e+00   0
   1  9.8623567e+00 3.92e+00 2.85e+01  -1.0 9.83e+01    -  3.30e-02 1.00e+00h  1
   2  9.8576211e+00 3.82e+00 6.68e-02  -1.0 1.96e+01    -  9.37e-01 1.00e+00h  1
   3  9.9088886e+00 6.00e+02 5.16e-01  -1.0 3.01e+03    -  2.13e-01 8.40e-02h  2
   4  9.8813235e+00 5.67e+01 2.53e-01  -1.0 3.63e+00  -4.0 6.13e-01 8.93e-01h  1
   5  9.8786373e+00 3.75e+01 2.24e-01  -1.0 7.91e-01  -4.5 3.14e-01 3.38e-01h  1
   6  9.8779300e+00 1.28e+01 4.73e-01  -1.0 1.34e+00  -5.0 9.85e-01 6.59e-01h  1
   7  9.8768166e+00 2.19e-02 3.71e-05  -1.0 3.88e-01  -5.4 1.00e+00 1.00e+00h  1
   8  9.8766361e+00 3.58e-01 4.49e-03  -2.5 6.24e+01    -  1.00e+00 1.00e+00h  1
   9  9.8758544e+00 2.54e+00 1.77e-03  -2.5 2.34e+02    -  1.00e+00 1.00e+00h  1
iter    objective    inf_pr   inf_du lg(mu)  ||d||  lg(rg) alpha_du alpha_pr  ls
  10  9.8758610e+00 2.39e-02 1.24e-02  -2.5 6.14e+02    -  1.00e+00 1.00e+00h  1
  11  9.8752297e+00 1.04e-05 1.30e-02  -3.8 2.30e-01  -5.9 7.99e-01 1.00e+00h  1
  12  9.8643396e+00 1.03e+00 3.98e-03  -3.8 5.56e+02    -  6.24e-01 1.00e+00h  1
  13  9.8635252e+00 4.57e-01 1.60e-03  -3.8 1.41e+03    -  1.00e+00 1.00e+00H  1
  14  9.8632772e+00 5.64e+00 9.97e-05  -3.8 3.44e+03    -  1.00e+00 1.00e+00h  1
  15  9.8633126e+00 6.47e-07 2.52e-08  -3.8 5.40e-03  -6.4 1.00e+00 1.00e+00h  1
  16  9.8603587e+00 9.96e-01 6.89e-04  -5.7 3.44e+03    -  7.75e-01 9.20e-01h  1
  17  9.8602231e+00 8.42e-01 2.09e-03  -5.7 7.75e+03    -  1.00e+00 3.59e-01h  1
  18  9.8602285e+00 7.90e-01 6.40e-03  -5.7 9.18e+03    -  1.00e+00 4.89e-01h  1
  19  9.8602386e+00 2.62e-01 1.51e-03  -5.7 1.20e+04    -  1.00e+00 1.00e+00H  1
iter    objective    inf_pr   inf_du lg(mu)  ||d||  lg(rg) alpha_du alpha_pr  ls
  20  9.8602342e+00 4.97e+00 3.63e-06  -5.7 3.07e+04    -  1.00e+00 1.00e+00h  1
  21  9.8602125e+00 6.16e+05 7.77e+04  -5.7 6.41e+06    -  1.00e+00 1.00e+00H  1
  22  9.8602156e+00 1.54e+05 1.94e+04  -5.7 1.58e+08    -  1.00e+00 1.00e+00h  1
  23  9.8602229e+00 3.85e+04 4.86e+03  -5.7 7.89e+07    -  1.00e+00 1.00e+00h  1
  24  9.8602281e+00 9.63e+03 1.21e+03  -5.7 3.95e+07    -  1.00e+00 1.00e+00h  1
  25  9.8602310e+00 2.41e+03 3.04e+02  -5.7 1.97e+07    -  1.00e+00 1.00e+00h  1
  26  9.8602325e+00 6.00e+02 7.59e+01  -5.7 9.85e+06    -  1.00e+00 1.00e+00h  1
  27  9.8602333e+00 1.49e+02 1.90e+01  -5.7 4.91e+06    -  1.00e+00 1.00e+00h  1
  28  9.8602335e+00 8.34e+01 1.07e+01  -5.7 2.41e+06    -  1.00e+00 5.00e-01h  2
  29  9.8602336e+00 6.38e+01 8.17e+00  -5.7 1.78e+06    -  1.00e+00 2.50e-01h  3
iter    objective    inf_pr   inf_du lg(mu)  ||d||  lg(rg) alpha_du alpha_pr  ls
  30  9.8602337e+00 4.88e+01 6.26e+00  -5.7 1.55e+06    -  1.00e+00 2.50e-01h  3
  31  9.8602337e+00 4.80e+01 6.16e+00  -5.7 1.34e+06    -  1.00e+00 1.56e-02h  7
  32  9.8602337e+00 4.76e+01 6.11e+00  -5.7 1.33e+06    -  1.00e+00 7.81e-03h  8
  33  9.8602339e+00 1.08e+01 1.51e+00  -5.7 1.32e+06    -  1.00e+00 1.00e+00h  1
  34  9.8602340e+00 1.84e+00 3.42e-01  -5.7 5.47e+05    -  1.00e+00 1.00e+00h  1
  35  9.8602340e+00 1.24e-01 4.10e-02  -5.7 1.46e+05    -  1.00e+00 1.00e+00h  1
  36  9.8602340e+00 7.81e-03 2.07e-03  -5.7 4.79e+04    -  1.00e+00 1.00e+00h  1
  37  9.8602340e+00 1.42e-14 8.71e-14  -5.7 6.35e-07  -6.9 1.00e+00 1.00e+00h  1
  38  9.8602299e+00 5.50e-10 1.49e-04  -8.6 1.96e-03  -7.3 1.00e+00 9.08e-01f  1
  39  9.8602299e+00 1.11e-15 3.36e-14  -8.6 2.20e-06  -7.8 1.00e+00 1.00e+00f  1

Number of Iterations....: 39

                                   (scaled)                 (unscaled)
Objective...............:   9.8602299334867549e+00    9.8602299334867549e+00
Dual infeasibility......:   3.3603872998994916e-14    3.3603872998994916e-14
Constraint violation....:   1.1102230246251565e-15    1.1102230246251565e-15
Variable bound violation:   0.0000000000000000e+00    0.0000000000000000e+00
Complementarity.........:   2.5083839906209858e-09    2.5083839906209858e-09
Overall NLP error.......:   2.5083839906209858e-09    2.5083839906209858e-09


Number of objective function evaluations             = 63
Number of objective gradient evaluations             = 40
Number of equality constraint evaluations            = 63
Number of inequality constraint evaluations          = 0
Number of equality constraint Jacobian evaluations   = 40
Number of inequality constraint Jacobian evaluations = 0
Number of Lagrangian Hessian evaluations             = 39
Total seconds in IPOPT                               = 0.173

EXIT: Optimal Solution Found.
